c 
c G(k,n,p) graph
c graph gen seed     : 31920
c number of vertices : 80
c max number of edges: 1600
c number of classes  : 2
c edge density       : 0.200000
c edge probability   : 0.400000
c data structure     : sparse
c
c           Graph Stats
c number of vertices  : 80
c nonisolated vertices: 80
c number of edges     : 671
c edge density        : 0.212342
c max degree          : 23
c avg degree          : 16.77
c min degree          : 7
p col 80 671
e 1 79
e 1 76
e 1 71
e 1 68
e 1 63
e 1 40
e 1 39
e 1 35
e 1 16
e 1 12
e 1 5
e 2 79
e 2 76
e 2 71
e 2 68
e 2 65
e 2 63
e 2 56
e 2 55
e 2 53
e 2 52
e 2 50
e 2 37
e 2 35
e 2 18
e 2 10
e 2 4
e 3 76
e 3 71
e 3 70
e 3 61
e 3 60
e 3 59
e 3 56
e 3 53
e 3 50
e 3 45
e 3 42
e 3 39
e 3 35
e 3 30
e 3 22
e 3 12
e 3 11
e 3 9
e 3 6
e 4 80
e 4 77
e 4 72
e 4 67
e 4 58
e 4 57
e 4 48
e 4 41
e 4 25
e 4 23
e 4 8
e 5 78
e 5 77
e 5 75
e 5 74
e 5 69
e 5 67
e 5 66
e 5 44
e 5 41
e 5 33
e 5 29
e 5 27
e 5 26
e 5 25
e 5 17
e 6 80
e 6 73
e 6 66
e 6 64
e 6 62
e 6 49
e 6 48
e 6 47
e 6 46
e 6 41
e 6 36
e 6 26
e 6 25
e 6 24
e 6 23
e 6 17
e 7 79
e 7 71
e 7 65
e 7 61
e 7 56
e 7 52
e 7 50
e 7 45
e 7 43
e 7 42
e 7 38
e 7 32
e 7 13
e 7 10
e 7 9
e 8 79
e 8 76
e 8 71
e 8 63
e 8 59
e 8 56
e 8 54
e 8 53
e 8 45
e 8 43
e 8 42
e 8 37
e 8 28
e 8 22
e 8 14
e 9 78
e 9 75
e 9 74
e 9 72
e 9 67
e 9 58
e 9 51
e 9 48
e 9 47
e 9 36
e 9 34
e 9 27
e 9 25
e 10 78
e 10 75
e 10 73
e 10 69
e 10 48
e 10 47
e 10 46
e 10 44
e 10 41
e 10 36
e 10 33
e 10 25
e 10 23
e 10 20
e 11 78
e 11 77
e 11 73
e 11 72
e 11 64
e 11 48
e 11 41
e 11 34
e 11 33
e 11 31
e 11 27
e 11 24
e 11 23
e 11 19
e 11 17
e 11 15
e 12 80
e 12 78
e 12 73
e 12 69
e 12 67
e 12 57
e 12 51
e 12 49
e 12 48
e 12 47
e 12 46
e 12 44
e 12 41
e 12 34
e 12 33
e 12 29
e 12 23
e 12 20
e 12 19
e 13 80
e 13 78
e 13 75
e 13 74
e 13 73
e 13 72
e 13 67
e 13 57
e 13 51
e 13 48
e 13 44
e 13 29
e 13 17
e 14 80
e 14 69
e 14 62
e 14 48
e 14 47
e 14 46
e 14 36
e 14 33
e 14 26
e 14 25
e 14 19
e 14 17
e 14 15
e 15 79
e 15 76
e 15 71
e 15 68
e 15 61
e 15 56
e 15 55
e 15 54
e 15 53
e 15 50
e 15 45
e 15 40
e 15 39
e 15 38
e 15 37
e 15 28
e 15 22
e 15 18
e 15 16
e 16 73
e 16 64
e 16 58
e 16 57
e 16 51
e 16 34
e 16 29
e 16 24
e 16 23
e 16 17
e 17 76
e 17 71
e 17 65
e 17 63
e 17 61
e 17 60
e 17 45
e 17 39
e 17 38
e 18 80
e 18 77
e 18 75
e 18 74
e 18 64
e 18 47
e 18 44
e 18 36
e 18 33
e 18 29
e 18 27
e 18 25
e 18 24
e 18 23
e 18 20
e 19 79
e 19 65
e 19 60
e 19 53
e 19 50
e 19 42
e 19 39
e 19 28
e 19 22
e 20 79
e 20 71
e 20 68
e 20 65
e 20 63
e 20 61
e 20 60
e 20 59
e 20 56
e 20 53
e 20 45
e 20 43
e 20 39
e 20 32
e 20 30
e 20 28
e 20 22
e 21 76
e 21 70
e 21 65
e 21 60
e 21 59
e 21 56
e 21 22
e 22 80
e 22 77
e 22 75
e 22 73
e 22 67
e 22 58
e 22 57
e 22 51
e 22 49
e 22 48
e 22 44
e 22 41
e 22 36
e 22 26
e 22 24
e 22 23
e 23 79
e 23 68
e 23 59
e 23 56
e 23 54
e 23 53
e 23 38
e 23 35
e 24 79
e 24 71
e 24 68
e 24 61
e 24 59
e 24 55
e 24 54
e 24 52
e 24 50
e 24 45
e 24 43
e 24 42
e 24 38
e 24 28
e 25 79
e 25 60
e 25 55
e 25 54
e 25 50
e 25 45
e 25 39
e 25 37
e 25 32
e 25 30
e 25 28
e 26 76
e 26 70
e 26 68
e 26 61
e 26 55
e 26 54
e 26 53
e 26 52
e 26 50
e 26 43
e 26 42
e 26 39
e 26 28
e 27 70
e 27 68
e 27 60
e 27 56
e 27 55
e 27 54
e 27 53
e 27 52
e 27 43
e 27 35
e 27 28
e 28 67
e 28 62
e 28 57
e 28 51
e 28 46
e 28 44
e 28 31
e 28 29
e 29 79
e 29 71
e 29 68
e 29 65
e 29 56
e 29 55
e 29 54
e 29 53
e 29 52
e 29 50
e 29 40
e 29 39
e 29 37
e 29 32
e 30 78
e 30 69
e 30 64
e 30 51
e 30 41
e 30 36
e 31 79
e 31 71
e 31 65
e 31 63
e 31 56
e 31 45
e 31 43
e 31 42
e 31 38
e 32 80
e 32 78
e 32 73
e 32 72
e 32 69
e 32 66
e 32 57
e 32 48
e 32 46
e 32 36
e 32 34
e 32 33
e 33 79
e 33 71
e 33 65
e 33 61
e 33 60
e 33 56
e 33 53
e 33 50
e 33 43
e 33 42
e 33 40
e 33 37
e 33 35
e 34 65
e 34 63
e 34 61
e 34 55
e 34 45
e 34 39
e 35 80
e 35 75
e 35 74
e 35 69
e 35 66
e 35 58
e 35 51
e 35 48
e 35 47
e 35 46
e 35 44
e 35 36
e 36 71
e 36 68
e 36 63
e 36 61
e 36 60
e 36 59
e 36 55
e 36 45
e 36 43
e 36 40
e 36 39
e 36 38
e 36 37
e 37 80
e 37 77
e 37 74
e 37 73
e 37 72
e 37 69
e 37 67
e 37 64
e 37 62
e 37 58
e 37 57
e 37 49
e 37 47
e 37 46
e 38 77
e 38 73
e 38 69
e 38 67
e 38 62
e 38 49
e 38 46
e 39 80
e 39 78
e 39 77
e 39 74
e 39 62
e 39 58
e 39 47
e 39 46
e 39 44
e 40 78
e 40 73
e 40 58
e 40 57
e 40 47
e 40 46
e 40 44
e 41 79
e 41 76
e 41 68
e 41 65
e 41 60
e 41 56
e 41 52
e 41 45
e 41 43
e 42 77
e 42 75
e 42 74
e 42 72
e 42 66
e 42 58
e 42 57
e 42 51
e 42 49
e 42 47
e 42 44
e 43 80
e 43 78
e 43 77
e 43 72
e 43 66
e 43 62
e 43 57
e 43 51
e 43 46
e 44 79
e 44 71
e 44 70
e 44 65
e 44 63
e 44 59
e 44 54
e 44 52
e 44 45
e 45 77
e 45 74
e 45 73
e 45 72
e 45 64
e 45 58
e 45 57
e 45 46
e 46 65
e 46 61
e 47 68
e 47 61
e 47 59
e 47 56
e 47 54
e 47 52
e 48 76
e 48 71
e 48 70
e 48 68
e 48 63
e 48 61
e 48 56
e 48 52
e 48 50
e 49 70
e 49 63
e 49 60
e 49 59
e 49 56
e 49 55
e 49 53
e 50 75
e 50 67
e 50 64
e 50 58
e 50 57
e 51 76
e 51 71
e 51 70
e 51 65
e 51 63
e 51 59
e 52 77
e 52 75
e 52 74
e 52 69
e 52 64
e 52 62
e 53 80
e 53 78
e 53 77
e 53 74
e 53 73
e 53 72
e 53 66
e 54 80
e 54 75
e 54 69
e 54 67
e 54 64
e 54 57
e 55 75
e 55 74
e 55 72
e 55 69
e 55 67
e 55 64
e 55 62
e 55 58
e 55 57
e 56 80
e 56 77
e 56 73
e 56 69
e 56 66
e 56 64
e 56 58
e 57 79
e 57 71
e 57 70
e 57 68
e 57 63
e 57 60
e 57 59
e 58 65
e 58 60
e 59 80
e 59 77
e 59 75
e 59 72
e 59 66
e 59 62
e 60 80
e 60 75
e 60 74
e 60 73
e 60 72
e 60 69
e 60 64
e 60 62
e 61 78
e 61 73
e 61 64
e 61 62
e 62 79
e 62 68
e 63 80
e 63 75
e 63 74
e 63 66
e 64 79
e 64 76
e 64 68
e 65 78
e 65 72
e 65 69
e 65 67
e 66 76
e 67 79
e 67 71
e 68 78
e 68 77
e 68 75
e 68 74
e 68 72
e 69 79
e 69 71
e 70 77
e 70 73
e 71 78
e 71 75
e 71 72
e 72 76
e 74 79
e 75 76
e 76 78
e 79 80
